0 442
2 426
4 402
8 370
13 362
15 350
18 342
25 318
26 302
30 296
34 288
41 284
51 280
66 276
67 272
69 264
77 260
88 256
92 224
120 220
129 216
140 208
162 206
167 200
197 198
257 196
261 190
290 186
296 184
360 182
563 178
822 174
1282 166
1316 158
1387 154
